%chk=aiida.chk
%mem=1000MB
%nprocshared=1
#P BLYP/6-31g nosymm opt scf=(cdiis,maxcycle=512)

input generated by the aiida-gaussian plugin

0 1
H 6.783334 5.845104 5.842635
H 5.356674 6.818104 5.576225
H 5.356674 5.589324 6.818475
H 5.356664 5.127894 5.133205
C 5.713334 5.845104 5.842635



